20	5
0	9	6	5	4	8	3	1	2	9	7
1	2	18	11
2	1	17
3	3	14	16	13
4	3	10	20	11
5	3	10	18	16
6	2	13	14
7	4	18	16	15	19
8	3	12	10	11
9	2	14	10
10	1	17
11	1	16
12	1	21
13	1	21
14	1	21
15	1	21
16	1	21
17	1	21
18	1	21
19	1	21
20	1	21
21	0
0	0	0	0	0	0	0
1	9	5	5	5	4	5
2	10	0	4	5	4	3
3	4	1	0	0	0	1
4	1	3	1	1	0	2
5	6	0	4	0	5	1
6	4	2	3	3	3	4
7	10	1	2	2	2	0
8	4	2	0	2	0	0
9	6	5	2	5	0	3
10	9	0	3	2	3	0
11	10	0	1	0	1	0
12	8	0	0	4	1	0
13	8	5	1	4	0	1
14	8	1	0	1	5	4
15	7	5	2	0	0	4
16	8	2	5	3	4	1
17	1	4	5	5	1	5
18	1	0	3	4	5	5
19	10	4	5	1	4	2
20	5	1	2	2	3	2
21	0	0	0	0	0	0
9	9	10	8	9
